; phase2: flip-only optimization
(set-logic QF_LIA)
(set-option :produce-models true)
(declare-fun flip_0_0 () Bool)
(declare-fun flip_0_1 () Bool)
(declare-fun flip_0_2 () Bool)
(declare-fun flip_0_3 () Bool)
(declare-fun flip_0_4 () Bool)
(declare-fun flip_0_5 () Bool)
(declare-fun flip_0_6 () Bool)
(declare-fun flip_1_0 () Bool)
(declare-fun flip_1_1 () Bool)
(declare-fun flip_1_2 () Bool)
(declare-fun flip_1_3 () Bool)
(declare-fun flip_1_4 () Bool)
(declare-fun flip_1_5 () Bool)
(declare-fun flip_1_6 () Bool)
(declare-fun flip_2_0 () Bool)
(declare-fun flip_2_1 () Bool)
(declare-fun flip_2_2 () Bool)
(declare-fun flip_2_3 () Bool)
(declare-fun flip_2_4 () Bool)
(declare-fun flip_2_5 () Bool)
(declare-fun flip_2_6 () Bool)
(declare-fun flip_3_0 () Bool)
(declare-fun flip_3_1 () Bool)
(declare-fun flip_3_2 () Bool)
(declare-fun flip_3_3 () Bool)
(declare-fun flip_3_4 () Bool)
(declare-fun flip_3_5 () Bool)
(declare-fun flip_3_6 () Bool)
(define-fun home_eff_0_0 () Int (ite flip_0_0 8 1))
(define-fun away_eff_0_0 () Int (ite flip_0_0 1 8))
(define-fun home_eff_0_1 () Int (ite flip_0_1 7 4))
(define-fun away_eff_0_1 () Int (ite flip_0_1 4 7))
(define-fun home_eff_0_2 () Int (ite flip_0_2 5 1))
(define-fun away_eff_0_2 () Int (ite flip_0_2 1 5))
(define-fun home_eff_0_3 () Int (ite flip_0_3 6 2))
(define-fun away_eff_0_3 () Int (ite flip_0_3 2 6))
(define-fun home_eff_0_4 () Int (ite flip_0_4 7 3))
(define-fun away_eff_0_4 () Int (ite flip_0_4 3 7))
(define-fun home_eff_0_5 () Int (ite flip_0_5 8 6))
(define-fun away_eff_0_5 () Int (ite flip_0_5 6 8))
(define-fun home_eff_0_6 () Int (ite flip_0_6 5 2))
(define-fun away_eff_0_6 () Int (ite flip_0_6 2 5))
(define-fun home_eff_1_0 () Int (ite flip_1_0 7 2))
(define-fun away_eff_1_0 () Int (ite flip_1_0 2 7))
(define-fun home_eff_1_1 () Int (ite flip_1_1 3 1))
(define-fun away_eff_1_1 () Int (ite flip_1_1 1 3))
(define-fun home_eff_1_2 () Int (ite flip_1_2 8 3))
(define-fun away_eff_1_2 () Int (ite flip_1_2 3 8))
(define-fun home_eff_1_3 () Int (ite flip_1_3 8 4))
(define-fun away_eff_1_3 () Int (ite flip_1_3 4 8))
(define-fun home_eff_1_4 () Int (ite flip_1_4 6 4))
(define-fun away_eff_1_4 () Int (ite flip_1_4 4 6))
(define-fun home_eff_1_5 () Int (ite flip_1_5 7 5))
(define-fun away_eff_1_5 () Int (ite flip_1_5 5 7))
(define-fun home_eff_1_6 () Int (ite flip_1_6 6 1))
(define-fun away_eff_1_6 () Int (ite flip_1_6 1 6))
(define-fun home_eff_2_0 () Int (ite flip_2_0 6 3))
(define-fun away_eff_2_0 () Int (ite flip_2_0 3 6))
(define-fun home_eff_2_1 () Int (ite flip_2_1 6 5))
(define-fun away_eff_2_1 () Int (ite flip_2_1 5 6))
(define-fun home_eff_2_2 () Int (ite flip_2_2 4 2))
(define-fun away_eff_2_2 () Int (ite flip_2_2 2 4))
(define-fun home_eff_2_3 () Int (ite flip_2_3 5 3))
(define-fun away_eff_2_3 () Int (ite flip_2_3 3 5))
(define-fun home_eff_2_4 () Int (ite flip_2_4 2 1))
(define-fun away_eff_2_4 () Int (ite flip_2_4 1 2))
(define-fun home_eff_2_5 () Int (ite flip_2_5 4 1))
(define-fun away_eff_2_5 () Int (ite flip_2_5 1 4))
(define-fun home_eff_2_6 () Int (ite flip_2_6 8 7))
(define-fun away_eff_2_6 () Int (ite flip_2_6 7 8))
(define-fun home_eff_3_0 () Int (ite flip_3_0 5 4))
(define-fun away_eff_3_0 () Int (ite flip_3_0 4 5))
(define-fun home_eff_3_1 () Int (ite flip_3_1 8 2))
(define-fun away_eff_3_1 () Int (ite flip_3_1 2 8))
(define-fun home_eff_3_2 () Int (ite flip_3_2 7 6))
(define-fun away_eff_3_2 () Int (ite flip_3_2 6 7))
(define-fun home_eff_3_3 () Int (ite flip_3_3 7 1))
(define-fun away_eff_3_3 () Int (ite flip_3_3 1 7))
(define-fun home_eff_3_4 () Int (ite flip_3_4 8 5))
(define-fun away_eff_3_4 () Int (ite flip_3_4 5 8))
(define-fun home_eff_3_5 () Int (ite flip_3_5 3 2))
(define-fun away_eff_3_5 () Int (ite flip_3_5 2 3))
(define-fun home_eff_3_6 () Int (ite flip_3_6 4 3))
(define-fun away_eff_3_6 () Int (ite flip_3_6 3 4))
(assert (<= (- (+ (ite (= home_eff_0_0 1) 1 0) (ite (= home_eff_0_1 1) 1 0) (ite (= home_eff_0_2 1) 1 0) (ite (= home_eff_0_3 1) 1 0) (ite (= home_eff_0_4 1) 1 0) (ite (= home_eff_0_5 1) 1 0) (ite (= home_eff_0_6 1) 1 0) (ite (= home_eff_1_0 1) 1 0) (ite (= home_eff_1_1 1) 1 0) (ite (= home_eff_1_2 1) 1 0) (ite (= home_eff_1_3 1) 1 0) (ite (= home_eff_1_4 1) 1 0) (ite (= home_eff_1_5 1) 1 0) (ite (= home_eff_1_6 1) 1 0) (ite (= home_eff_2_0 1) 1 0) (ite (= home_eff_2_1 1) 1 0) (ite (= home_eff_2_2 1) 1 0) (ite (= home_eff_2_3 1) 1 0) (ite (= home_eff_2_4 1) 1 0) (ite (= home_eff_2_5 1) 1 0) (ite (= home_eff_2_6 1) 1 0) (ite (= home_eff_3_0 1) 1 0) (ite (= home_eff_3_1 1) 1 0) (ite (= home_eff_3_2 1) 1 0) (ite (= home_eff_3_3 1) 1 0) (ite (= home_eff_3_4 1) 1 0) (ite (= home_eff_3_5 1) 1 0) (ite (= home_eff_3_6 1) 1 0)) (+ (ite (= away_eff_0_0 1) 1 0) (ite (= away_eff_0_1 1) 1 0) (ite (= away_eff_0_2 1) 1 0) (ite (= away_eff_0_3 1) 1 0) (ite (= away_eff_0_4 1) 1 0) (ite (= away_eff_0_5 1) 1 0) (ite (= away_eff_0_6 1) 1 0) (ite (= away_eff_1_0 1) 1 0) (ite (= away_eff_1_1 1) 1 0) (ite (= away_eff_1_2 1) 1 0) (ite (= away_eff_1_3 1) 1 0) (ite (= away_eff_1_4 1) 1 0) (ite (= away_eff_1_5 1) 1 0) (ite (= away_eff_1_6 1) 1 0) (ite (= away_eff_2_0 1) 1 0) (ite (= away_eff_2_1 1) 1 0) (ite (= away_eff_2_2 1) 1 0) (ite (= away_eff_2_3 1) 1 0) (ite (= away_eff_2_4 1) 1 0) (ite (= away_eff_2_5 1) 1 0) (ite (= away_eff_2_6 1) 1 0) (ite (= away_eff_3_0 1) 1 0) (ite (= away_eff_3_1 1) 1 0) (ite (= away_eff_3_2 1) 1 0) (ite (= away_eff_3_3 1) 1 0) (ite (= away_eff_3_4 1) 1 0) (ite (= away_eff_3_5 1) 1 0) (ite (= away_eff_3_6 1) 1 0))) 2))
(assert (<= (- (+ (ite (= away_eff_0_0 1) 1 0) (ite (= away_eff_0_1 1) 1 0) (ite (= away_eff_0_2 1) 1 0) (ite (= away_eff_0_3 1) 1 0) (ite (= away_eff_0_4 1) 1 0) (ite (= away_eff_0_5 1) 1 0) (ite (= away_eff_0_6 1) 1 0) (ite (= away_eff_1_0 1) 1 0) (ite (= away_eff_1_1 1) 1 0) (ite (= away_eff_1_2 1) 1 0) (ite (= away_eff_1_3 1) 1 0) (ite (= away_eff_1_4 1) 1 0) (ite (= away_eff_1_5 1) 1 0) (ite (= away_eff_1_6 1) 1 0) (ite (= away_eff_2_0 1) 1 0) (ite (= away_eff_2_1 1) 1 0) (ite (= away_eff_2_2 1) 1 0) (ite (= away_eff_2_3 1) 1 0) (ite (= away_eff_2_4 1) 1 0) (ite (= away_eff_2_5 1) 1 0) (ite (= away_eff_2_6 1) 1 0) (ite (= away_eff_3_0 1) 1 0) (ite (= away_eff_3_1 1) 1 0) (ite (= away_eff_3_2 1) 1 0) (ite (= away_eff_3_3 1) 1 0) (ite (= away_eff_3_4 1) 1 0) (ite (= away_eff_3_5 1) 1 0) (ite (= away_eff_3_6 1) 1 0)) (+ (ite (= home_eff_0_0 1) 1 0) (ite (= home_eff_0_1 1) 1 0) (ite (= home_eff_0_2 1) 1 0) (ite (= home_eff_0_3 1) 1 0) (ite (= home_eff_0_4 1) 1 0) (ite (= home_eff_0_5 1) 1 0) (ite (= home_eff_0_6 1) 1 0) (ite (= home_eff_1_0 1) 1 0) (ite (= home_eff_1_1 1) 1 0) (ite (= home_eff_1_2 1) 1 0) (ite (= home_eff_1_3 1) 1 0) (ite (= home_eff_1_4 1) 1 0) (ite (= home_eff_1_5 1) 1 0) (ite (= home_eff_1_6 1) 1 0) (ite (= home_eff_2_0 1) 1 0) (ite (= home_eff_2_1 1) 1 0) (ite (= home_eff_2_2 1) 1 0) (ite (= home_eff_2_3 1) 1 0) (ite (= home_eff_2_4 1) 1 0) (ite (= home_eff_2_5 1) 1 0) (ite (= home_eff_2_6 1) 1 0) (ite (= home_eff_3_0 1) 1 0) (ite (= home_eff_3_1 1) 1 0) (ite (= home_eff_3_2 1) 1 0) (ite (= home_eff_3_3 1) 1 0) (ite (= home_eff_3_4 1) 1 0) (ite (= home_eff_3_5 1) 1 0) (ite (= home_eff_3_6 1) 1 0))) 2))
(assert (<= (- (+ (ite (= home_eff_0_0 2) 1 0) (ite (= home_eff_0_1 2) 1 0) (ite (= home_eff_0_2 2) 1 0) (ite (= home_eff_0_3 2) 1 0) (ite (= home_eff_0_4 2) 1 0) (ite (= home_eff_0_5 2) 1 0) (ite (= home_eff_0_6 2) 1 0) (ite (= home_eff_1_0 2) 1 0) (ite (= home_eff_1_1 2) 1 0) (ite (= home_eff_1_2 2) 1 0) (ite (= home_eff_1_3 2) 1 0) (ite (= home_eff_1_4 2) 1 0) (ite (= home_eff_1_5 2) 1 0) (ite (= home_eff_1_6 2) 1 0) (ite (= home_eff_2_0 2) 1 0) (ite (= home_eff_2_1 2) 1 0) (ite (= home_eff_2_2 2) 1 0) (ite (= home_eff_2_3 2) 1 0) (ite (= home_eff_2_4 2) 1 0) (ite (= home_eff_2_5 2) 1 0) (ite (= home_eff_2_6 2) 1 0) (ite (= home_eff_3_0 2) 1 0) (ite (= home_eff_3_1 2) 1 0) (ite (= home_eff_3_2 2) 1 0) (ite (= home_eff_3_3 2) 1 0) (ite (= home_eff_3_4 2) 1 0) (ite (= home_eff_3_5 2) 1 0) (ite (= home_eff_3_6 2) 1 0)) (+ (ite (= away_eff_0_0 2) 1 0) (ite (= away_eff_0_1 2) 1 0) (ite (= away_eff_0_2 2) 1 0) (ite (= away_eff_0_3 2) 1 0) (ite (= away_eff_0_4 2) 1 0) (ite (= away_eff_0_5 2) 1 0) (ite (= away_eff_0_6 2) 1 0) (ite (= away_eff_1_0 2) 1 0) (ite (= away_eff_1_1 2) 1 0) (ite (= away_eff_1_2 2) 1 0) (ite (= away_eff_1_3 2) 1 0) (ite (= away_eff_1_4 2) 1 0) (ite (= away_eff_1_5 2) 1 0) (ite (= away_eff_1_6 2) 1 0) (ite (= away_eff_2_0 2) 1 0) (ite (= away_eff_2_1 2) 1 0) (ite (= away_eff_2_2 2) 1 0) (ite (= away_eff_2_3 2) 1 0) (ite (= away_eff_2_4 2) 1 0) (ite (= away_eff_2_5 2) 1 0) (ite (= away_eff_2_6 2) 1 0) (ite (= away_eff_3_0 2) 1 0) (ite (= away_eff_3_1 2) 1 0) (ite (= away_eff_3_2 2) 1 0) (ite (= away_eff_3_3 2) 1 0) (ite (= away_eff_3_4 2) 1 0) (ite (= away_eff_3_5 2) 1 0) (ite (= away_eff_3_6 2) 1 0))) 2))
(assert (<= (- (+ (ite (= away_eff_0_0 2) 1 0) (ite (= away_eff_0_1 2) 1 0) (ite (= away_eff_0_2 2) 1 0) (ite (= away_eff_0_3 2) 1 0) (ite (= away_eff_0_4 2) 1 0) (ite (= away_eff_0_5 2) 1 0) (ite (= away_eff_0_6 2) 1 0) (ite (= away_eff_1_0 2) 1 0) (ite (= away_eff_1_1 2) 1 0) (ite (= away_eff_1_2 2) 1 0) (ite (= away_eff_1_3 2) 1 0) (ite (= away_eff_1_4 2) 1 0) (ite (= away_eff_1_5 2) 1 0) (ite (= away_eff_1_6 2) 1 0) (ite (= away_eff_2_0 2) 1 0) (ite (= away_eff_2_1 2) 1 0) (ite (= away_eff_2_2 2) 1 0) (ite (= away_eff_2_3 2) 1 0) (ite (= away_eff_2_4 2) 1 0) (ite (= away_eff_2_5 2) 1 0) (ite (= away_eff_2_6 2) 1 0) (ite (= away_eff_3_0 2) 1 0) (ite (= away_eff_3_1 2) 1 0) (ite (= away_eff_3_2 2) 1 0) (ite (= away_eff_3_3 2) 1 0) (ite (= away_eff_3_4 2) 1 0) (ite (= away_eff_3_5 2) 1 0) (ite (= away_eff_3_6 2) 1 0)) (+ (ite (= home_eff_0_0 2) 1 0) (ite (= home_eff_0_1 2) 1 0) (ite (= home_eff_0_2 2) 1 0) (ite (= home_eff_0_3 2) 1 0) (ite (= home_eff_0_4 2) 1 0) (ite (= home_eff_0_5 2) 1 0) (ite (= home_eff_0_6 2) 1 0) (ite (= home_eff_1_0 2) 1 0) (ite (= home_eff_1_1 2) 1 0) (ite (= home_eff_1_2 2) 1 0) (ite (= home_eff_1_3 2) 1 0) (ite (= home_eff_1_4 2) 1 0) (ite (= home_eff_1_5 2) 1 0) (ite (= home_eff_1_6 2) 1 0) (ite (= home_eff_2_0 2) 1 0) (ite (= home_eff_2_1 2) 1 0) (ite (= home_eff_2_2 2) 1 0) (ite (= home_eff_2_3 2) 1 0) (ite (= home_eff_2_4 2) 1 0) (ite (= home_eff_2_5 2) 1 0) (ite (= home_eff_2_6 2) 1 0) (ite (= home_eff_3_0 2) 1 0) (ite (= home_eff_3_1 2) 1 0) (ite (= home_eff_3_2 2) 1 0) (ite (= home_eff_3_3 2) 1 0) (ite (= home_eff_3_4 2) 1 0) (ite (= home_eff_3_5 2) 1 0) (ite (= home_eff_3_6 2) 1 0))) 2))
(assert (<= (- (+ (ite (= home_eff_0_0 3) 1 0) (ite (= home_eff_0_1 3) 1 0) (ite (= home_eff_0_2 3) 1 0) (ite (= home_eff_0_3 3) 1 0) (ite (= home_eff_0_4 3) 1 0) (ite (= home_eff_0_5 3) 1 0) (ite (= home_eff_0_6 3) 1 0) (ite (= home_eff_1_0 3) 1 0) (ite (= home_eff_1_1 3) 1 0) (ite (= home_eff_1_2 3) 1 0) (ite (= home_eff_1_3 3) 1 0) (ite (= home_eff_1_4 3) 1 0) (ite (= home_eff_1_5 3) 1 0) (ite (= home_eff_1_6 3) 1 0) (ite (= home_eff_2_0 3) 1 0) (ite (= home_eff_2_1 3) 1 0) (ite (= home_eff_2_2 3) 1 0) (ite (= home_eff_2_3 3) 1 0) (ite (= home_eff_2_4 3) 1 0) (ite (= home_eff_2_5 3) 1 0) (ite (= home_eff_2_6 3) 1 0) (ite (= home_eff_3_0 3) 1 0) (ite (= home_eff_3_1 3) 1 0) (ite (= home_eff_3_2 3) 1 0) (ite (= home_eff_3_3 3) 1 0) (ite (= home_eff_3_4 3) 1 0) (ite (= home_eff_3_5 3) 1 0) (ite (= home_eff_3_6 3) 1 0)) (+ (ite (= away_eff_0_0 3) 1 0) (ite (= away_eff_0_1 3) 1 0) (ite (= away_eff_0_2 3) 1 0) (ite (= away_eff_0_3 3) 1 0) (ite (= away_eff_0_4 3) 1 0) (ite (= away_eff_0_5 3) 1 0) (ite (= away_eff_0_6 3) 1 0) (ite (= away_eff_1_0 3) 1 0) (ite (= away_eff_1_1 3) 1 0) (ite (= away_eff_1_2 3) 1 0) (ite (= away_eff_1_3 3) 1 0) (ite (= away_eff_1_4 3) 1 0) (ite (= away_eff_1_5 3) 1 0) (ite (= away_eff_1_6 3) 1 0) (ite (= away_eff_2_0 3) 1 0) (ite (= away_eff_2_1 3) 1 0) (ite (= away_eff_2_2 3) 1 0) (ite (= away_eff_2_3 3) 1 0) (ite (= away_eff_2_4 3) 1 0) (ite (= away_eff_2_5 3) 1 0) (ite (= away_eff_2_6 3) 1 0) (ite (= away_eff_3_0 3) 1 0) (ite (= away_eff_3_1 3) 1 0) (ite (= away_eff_3_2 3) 1 0) (ite (= away_eff_3_3 3) 1 0) (ite (= away_eff_3_4 3) 1 0) (ite (= away_eff_3_5 3) 1 0) (ite (= away_eff_3_6 3) 1 0))) 2))
(assert (<= (- (+ (ite (= away_eff_0_0 3) 1 0) (ite (= away_eff_0_1 3) 1 0) (ite (= away_eff_0_2 3) 1 0) (ite (= away_eff_0_3 3) 1 0) (ite (= away_eff_0_4 3) 1 0) (ite (= away_eff_0_5 3) 1 0) (ite (= away_eff_0_6 3) 1 0) (ite (= away_eff_1_0 3) 1 0) (ite (= away_eff_1_1 3) 1 0) (ite (= away_eff_1_2 3) 1 0) (ite (= away_eff_1_3 3) 1 0) (ite (= away_eff_1_4 3) 1 0) (ite (= away_eff_1_5 3) 1 0) (ite (= away_eff_1_6 3) 1 0) (ite (= away_eff_2_0 3) 1 0) (ite (= away_eff_2_1 3) 1 0) (ite (= away_eff_2_2 3) 1 0) (ite (= away_eff_2_3 3) 1 0) (ite (= away_eff_2_4 3) 1 0) (ite (= away_eff_2_5 3) 1 0) (ite (= away_eff_2_6 3) 1 0) (ite (= away_eff_3_0 3) 1 0) (ite (= away_eff_3_1 3) 1 0) (ite (= away_eff_3_2 3) 1 0) (ite (= away_eff_3_3 3) 1 0) (ite (= away_eff_3_4 3) 1 0) (ite (= away_eff_3_5 3) 1 0) (ite (= away_eff_3_6 3) 1 0)) (+ (ite (= home_eff_0_0 3) 1 0) (ite (= home_eff_0_1 3) 1 0) (ite (= home_eff_0_2 3) 1 0) (ite (= home_eff_0_3 3) 1 0) (ite (= home_eff_0_4 3) 1 0) (ite (= home_eff_0_5 3) 1 0) (ite (= home_eff_0_6 3) 1 0) (ite (= home_eff_1_0 3) 1 0) (ite (= home_eff_1_1 3) 1 0) (ite (= home_eff_1_2 3) 1 0) (ite (= home_eff_1_3 3) 1 0) (ite (= home_eff_1_4 3) 1 0) (ite (= home_eff_1_5 3) 1 0) (ite (= home_eff_1_6 3) 1 0) (ite (= home_eff_2_0 3) 1 0) (ite (= home_eff_2_1 3) 1 0) (ite (= home_eff_2_2 3) 1 0) (ite (= home_eff_2_3 3) 1 0) (ite (= home_eff_2_4 3) 1 0) (ite (= home_eff_2_5 3) 1 0) (ite (= home_eff_2_6 3) 1 0) (ite (= home_eff_3_0 3) 1 0) (ite (= home_eff_3_1 3) 1 0) (ite (= home_eff_3_2 3) 1 0) (ite (= home_eff_3_3 3) 1 0) (ite (= home_eff_3_4 3) 1 0) (ite (= home_eff_3_5 3) 1 0) (ite (= home_eff_3_6 3) 1 0))) 2))
(assert (<= (- (+ (ite (= home_eff_0_0 4) 1 0) (ite (= home_eff_0_1 4) 1 0) (ite (= home_eff_0_2 4) 1 0) (ite (= home_eff_0_3 4) 1 0) (ite (= home_eff_0_4 4) 1 0) (ite (= home_eff_0_5 4) 1 0) (ite (= home_eff_0_6 4) 1 0) (ite (= home_eff_1_0 4) 1 0) (ite (= home_eff_1_1 4) 1 0) (ite (= home_eff_1_2 4) 1 0) (ite (= home_eff_1_3 4) 1 0) (ite (= home_eff_1_4 4) 1 0) (ite (= home_eff_1_5 4) 1 0) (ite (= home_eff_1_6 4) 1 0) (ite (= home_eff_2_0 4) 1 0) (ite (= home_eff_2_1 4) 1 0) (ite (= home_eff_2_2 4) 1 0) (ite (= home_eff_2_3 4) 1 0) (ite (= home_eff_2_4 4) 1 0) (ite (= home_eff_2_5 4) 1 0) (ite (= home_eff_2_6 4) 1 0) (ite (= home_eff_3_0 4) 1 0) (ite (= home_eff_3_1 4) 1 0) (ite (= home_eff_3_2 4) 1 0) (ite (= home_eff_3_3 4) 1 0) (ite (= home_eff_3_4 4) 1 0) (ite (= home_eff_3_5 4) 1 0) (ite (= home_eff_3_6 4) 1 0)) (+ (ite (= away_eff_0_0 4) 1 0) (ite (= away_eff_0_1 4) 1 0) (ite (= away_eff_0_2 4) 1 0) (ite (= away_eff_0_3 4) 1 0) (ite (= away_eff_0_4 4) 1 0) (ite (= away_eff_0_5 4) 1 0) (ite (= away_eff_0_6 4) 1 0) (ite (= away_eff_1_0 4) 1 0) (ite (= away_eff_1_1 4) 1 0) (ite (= away_eff_1_2 4) 1 0) (ite (= away_eff_1_3 4) 1 0) (ite (= away_eff_1_4 4) 1 0) (ite (= away_eff_1_5 4) 1 0) (ite (= away_eff_1_6 4) 1 0) (ite (= away_eff_2_0 4) 1 0) (ite (= away_eff_2_1 4) 1 0) (ite (= away_eff_2_2 4) 1 0) (ite (= away_eff_2_3 4) 1 0) (ite (= away_eff_2_4 4) 1 0) (ite (= away_eff_2_5 4) 1 0) (ite (= away_eff_2_6 4) 1 0) (ite (= away_eff_3_0 4) 1 0) (ite (= away_eff_3_1 4) 1 0) (ite (= away_eff_3_2 4) 1 0) (ite (= away_eff_3_3 4) 1 0) (ite (= away_eff_3_4 4) 1 0) (ite (= away_eff_3_5 4) 1 0) (ite (= away_eff_3_6 4) 1 0))) 2))
(assert (<= (- (+ (ite (= away_eff_0_0 4) 1 0) (ite (= away_eff_0_1 4) 1 0) (ite (= away_eff_0_2 4) 1 0) (ite (= away_eff_0_3 4) 1 0) (ite (= away_eff_0_4 4) 1 0) (ite (= away_eff_0_5 4) 1 0) (ite (= away_eff_0_6 4) 1 0) (ite (= away_eff_1_0 4) 1 0) (ite (= away_eff_1_1 4) 1 0) (ite (= away_eff_1_2 4) 1 0) (ite (= away_eff_1_3 4) 1 0) (ite (= away_eff_1_4 4) 1 0) (ite (= away_eff_1_5 4) 1 0) (ite (= away_eff_1_6 4) 1 0) (ite (= away_eff_2_0 4) 1 0) (ite (= away_eff_2_1 4) 1 0) (ite (= away_eff_2_2 4) 1 0) (ite (= away_eff_2_3 4) 1 0) (ite (= away_eff_2_4 4) 1 0) (ite (= away_eff_2_5 4) 1 0) (ite (= away_eff_2_6 4) 1 0) (ite (= away_eff_3_0 4) 1 0) (ite (= away_eff_3_1 4) 1 0) (ite (= away_eff_3_2 4) 1 0) (ite (= away_eff_3_3 4) 1 0) (ite (= away_eff_3_4 4) 1 0) (ite (= away_eff_3_5 4) 1 0) (ite (= away_eff_3_6 4) 1 0)) (+ (ite (= home_eff_0_0 4) 1 0) (ite (= home_eff_0_1 4) 1 0) (ite (= home_eff_0_2 4) 1 0) (ite (= home_eff_0_3 4) 1 0) (ite (= home_eff_0_4 4) 1 0) (ite (= home_eff_0_5 4) 1 0) (ite (= home_eff_0_6 4) 1 0) (ite (= home_eff_1_0 4) 1 0) (ite (= home_eff_1_1 4) 1 0) (ite (= home_eff_1_2 4) 1 0) (ite (= home_eff_1_3 4) 1 0) (ite (= home_eff_1_4 4) 1 0) (ite (= home_eff_1_5 4) 1 0) (ite (= home_eff_1_6 4) 1 0) (ite (= home_eff_2_0 4) 1 0) (ite (= home_eff_2_1 4) 1 0) (ite (= home_eff_2_2 4) 1 0) (ite (= home_eff_2_3 4) 1 0) (ite (= home_eff_2_4 4) 1 0) (ite (= home_eff_2_5 4) 1 0) (ite (= home_eff_2_6 4) 1 0) (ite (= home_eff_3_0 4) 1 0) (ite (= home_eff_3_1 4) 1 0) (ite (= home_eff_3_2 4) 1 0) (ite (= home_eff_3_3 4) 1 0) (ite (= home_eff_3_4 4) 1 0) (ite (= home_eff_3_5 4) 1 0) (ite (= home_eff_3_6 4) 1 0))) 2))
(assert (<= (- (+ (ite (= home_eff_0_0 5) 1 0) (ite (= home_eff_0_1 5) 1 0) (ite (= home_eff_0_2 5) 1 0) (ite (= home_eff_0_3 5) 1 0) (ite (= home_eff_0_4 5) 1 0) (ite (= home_eff_0_5 5) 1 0) (ite (= home_eff_0_6 5) 1 0) (ite (= home_eff_1_0 5) 1 0) (ite (= home_eff_1_1 5) 1 0) (ite (= home_eff_1_2 5) 1 0) (ite (= home_eff_1_3 5) 1 0) (ite (= home_eff_1_4 5) 1 0) (ite (= home_eff_1_5 5) 1 0) (ite (= home_eff_1_6 5) 1 0) (ite (= home_eff_2_0 5) 1 0) (ite (= home_eff_2_1 5) 1 0) (ite (= home_eff_2_2 5) 1 0) (ite (= home_eff_2_3 5) 1 0) (ite (= home_eff_2_4 5) 1 0) (ite (= home_eff_2_5 5) 1 0) (ite (= home_eff_2_6 5) 1 0) (ite (= home_eff_3_0 5) 1 0) (ite (= home_eff_3_1 5) 1 0) (ite (= home_eff_3_2 5) 1 0) (ite (= home_eff_3_3 5) 1 0) (ite (= home_eff_3_4 5) 1 0) (ite (= home_eff_3_5 5) 1 0) (ite (= home_eff_3_6 5) 1 0)) (+ (ite (= away_eff_0_0 5) 1 0) (ite (= away_eff_0_1 5) 1 0) (ite (= away_eff_0_2 5) 1 0) (ite (= away_eff_0_3 5) 1 0) (ite (= away_eff_0_4 5) 1 0) (ite (= away_eff_0_5 5) 1 0) (ite (= away_eff_0_6 5) 1 0) (ite (= away_eff_1_0 5) 1 0) (ite (= away_eff_1_1 5) 1 0) (ite (= away_eff_1_2 5) 1 0) (ite (= away_eff_1_3 5) 1 0) (ite (= away_eff_1_4 5) 1 0) (ite (= away_eff_1_5 5) 1 0) (ite (= away_eff_1_6 5) 1 0) (ite (= away_eff_2_0 5) 1 0) (ite (= away_eff_2_1 5) 1 0) (ite (= away_eff_2_2 5) 1 0) (ite (= away_eff_2_3 5) 1 0) (ite (= away_eff_2_4 5) 1 0) (ite (= away_eff_2_5 5) 1 0) (ite (= away_eff_2_6 5) 1 0) (ite (= away_eff_3_0 5) 1 0) (ite (= away_eff_3_1 5) 1 0) (ite (= away_eff_3_2 5) 1 0) (ite (= away_eff_3_3 5) 1 0) (ite (= away_eff_3_4 5) 1 0) (ite (= away_eff_3_5 5) 1 0) (ite (= away_eff_3_6 5) 1 0))) 2))
(assert (<= (- (+ (ite (= away_eff_0_0 5) 1 0) (ite (= away_eff_0_1 5) 1 0) (ite (= away_eff_0_2 5) 1 0) (ite (= away_eff_0_3 5) 1 0) (ite (= away_eff_0_4 5) 1 0) (ite (= away_eff_0_5 5) 1 0) (ite (= away_eff_0_6 5) 1 0) (ite (= away_eff_1_0 5) 1 0) (ite (= away_eff_1_1 5) 1 0) (ite (= away_eff_1_2 5) 1 0) (ite (= away_eff_1_3 5) 1 0) (ite (= away_eff_1_4 5) 1 0) (ite (= away_eff_1_5 5) 1 0) (ite (= away_eff_1_6 5) 1 0) (ite (= away_eff_2_0 5) 1 0) (ite (= away_eff_2_1 5) 1 0) (ite (= away_eff_2_2 5) 1 0) (ite (= away_eff_2_3 5) 1 0) (ite (= away_eff_2_4 5) 1 0) (ite (= away_eff_2_5 5) 1 0) (ite (= away_eff_2_6 5) 1 0) (ite (= away_eff_3_0 5) 1 0) (ite (= away_eff_3_1 5) 1 0) (ite (= away_eff_3_2 5) 1 0) (ite (= away_eff_3_3 5) 1 0) (ite (= away_eff_3_4 5) 1 0) (ite (= away_eff_3_5 5) 1 0) (ite (= away_eff_3_6 5) 1 0)) (+ (ite (= home_eff_0_0 5) 1 0) (ite (= home_eff_0_1 5) 1 0) (ite (= home_eff_0_2 5) 1 0) (ite (= home_eff_0_3 5) 1 0) (ite (= home_eff_0_4 5) 1 0) (ite (= home_eff_0_5 5) 1 0) (ite (= home_eff_0_6 5) 1 0) (ite (= home_eff_1_0 5) 1 0) (ite (= home_eff_1_1 5) 1 0) (ite (= home_eff_1_2 5) 1 0) (ite (= home_eff_1_3 5) 1 0) (ite (= home_eff_1_4 5) 1 0) (ite (= home_eff_1_5 5) 1 0) (ite (= home_eff_1_6 5) 1 0) (ite (= home_eff_2_0 5) 1 0) (ite (= home_eff_2_1 5) 1 0) (ite (= home_eff_2_2 5) 1 0) (ite (= home_eff_2_3 5) 1 0) (ite (= home_eff_2_4 5) 1 0) (ite (= home_eff_2_5 5) 1 0) (ite (= home_eff_2_6 5) 1 0) (ite (= home_eff_3_0 5) 1 0) (ite (= home_eff_3_1 5) 1 0) (ite (= home_eff_3_2 5) 1 0) (ite (= home_eff_3_3 5) 1 0) (ite (= home_eff_3_4 5) 1 0) (ite (= home_eff_3_5 5) 1 0) (ite (= home_eff_3_6 5) 1 0))) 2))
(assert (<= (- (+ (ite (= home_eff_0_0 6) 1 0) (ite (= home_eff_0_1 6) 1 0) (ite (= home_eff_0_2 6) 1 0) (ite (= home_eff_0_3 6) 1 0) (ite (= home_eff_0_4 6) 1 0) (ite (= home_eff_0_5 6) 1 0) (ite (= home_eff_0_6 6) 1 0) (ite (= home_eff_1_0 6) 1 0) (ite (= home_eff_1_1 6) 1 0) (ite (= home_eff_1_2 6) 1 0) (ite (= home_eff_1_3 6) 1 0) (ite (= home_eff_1_4 6) 1 0) (ite (= home_eff_1_5 6) 1 0) (ite (= home_eff_1_6 6) 1 0) (ite (= home_eff_2_0 6) 1 0) (ite (= home_eff_2_1 6) 1 0) (ite (= home_eff_2_2 6) 1 0) (ite (= home_eff_2_3 6) 1 0) (ite (= home_eff_2_4 6) 1 0) (ite (= home_eff_2_5 6) 1 0) (ite (= home_eff_2_6 6) 1 0) (ite (= home_eff_3_0 6) 1 0) (ite (= home_eff_3_1 6) 1 0) (ite (= home_eff_3_2 6) 1 0) (ite (= home_eff_3_3 6) 1 0) (ite (= home_eff_3_4 6) 1 0) (ite (= home_eff_3_5 6) 1 0) (ite (= home_eff_3_6 6) 1 0)) (+ (ite (= away_eff_0_0 6) 1 0) (ite (= away_eff_0_1 6) 1 0) (ite (= away_eff_0_2 6) 1 0) (ite (= away_eff_0_3 6) 1 0) (ite (= away_eff_0_4 6) 1 0) (ite (= away_eff_0_5 6) 1 0) (ite (= away_eff_0_6 6) 1 0) (ite (= away_eff_1_0 6) 1 0) (ite (= away_eff_1_1 6) 1 0) (ite (= away_eff_1_2 6) 1 0) (ite (= away_eff_1_3 6) 1 0) (ite (= away_eff_1_4 6) 1 0) (ite (= away_eff_1_5 6) 1 0) (ite (= away_eff_1_6 6) 1 0) (ite (= away_eff_2_0 6) 1 0) (ite (= away_eff_2_1 6) 1 0) (ite (= away_eff_2_2 6) 1 0) (ite (= away_eff_2_3 6) 1 0) (ite (= away_eff_2_4 6) 1 0) (ite (= away_eff_2_5 6) 1 0) (ite (= away_eff_2_6 6) 1 0) (ite (= away_eff_3_0 6) 1 0) (ite (= away_eff_3_1 6) 1 0) (ite (= away_eff_3_2 6) 1 0) (ite (= away_eff_3_3 6) 1 0) (ite (= away_eff_3_4 6) 1 0) (ite (= away_eff_3_5 6) 1 0) (ite (= away_eff_3_6 6) 1 0))) 2))
(assert (<= (- (+ (ite (= away_eff_0_0 6) 1 0) (ite (= away_eff_0_1 6) 1 0) (ite (= away_eff_0_2 6) 1 0) (ite (= away_eff_0_3 6) 1 0) (ite (= away_eff_0_4 6) 1 0) (ite (= away_eff_0_5 6) 1 0) (ite (= away_eff_0_6 6) 1 0) (ite (= away_eff_1_0 6) 1 0) (ite (= away_eff_1_1 6) 1 0) (ite (= away_eff_1_2 6) 1 0) (ite (= away_eff_1_3 6) 1 0) (ite (= away_eff_1_4 6) 1 0) (ite (= away_eff_1_5 6) 1 0) (ite (= away_eff_1_6 6) 1 0) (ite (= away_eff_2_0 6) 1 0) (ite (= away_eff_2_1 6) 1 0) (ite (= away_eff_2_2 6) 1 0) (ite (= away_eff_2_3 6) 1 0) (ite (= away_eff_2_4 6) 1 0) (ite (= away_eff_2_5 6) 1 0) (ite (= away_eff_2_6 6) 1 0) (ite (= away_eff_3_0 6) 1 0) (ite (= away_eff_3_1 6) 1 0) (ite (= away_eff_3_2 6) 1 0) (ite (= away_eff_3_3 6) 1 0) (ite (= away_eff_3_4 6) 1 0) (ite (= away_eff_3_5 6) 1 0) (ite (= away_eff_3_6 6) 1 0)) (+ (ite (= home_eff_0_0 6) 1 0) (ite (= home_eff_0_1 6) 1 0) (ite (= home_eff_0_2 6) 1 0) (ite (= home_eff_0_3 6) 1 0) (ite (= home_eff_0_4 6) 1 0) (ite (= home_eff_0_5 6) 1 0) (ite (= home_eff_0_6 6) 1 0) (ite (= home_eff_1_0 6) 1 0) (ite (= home_eff_1_1 6) 1 0) (ite (= home_eff_1_2 6) 1 0) (ite (= home_eff_1_3 6) 1 0) (ite (= home_eff_1_4 6) 1 0) (ite (= home_eff_1_5 6) 1 0) (ite (= home_eff_1_6 6) 1 0) (ite (= home_eff_2_0 6) 1 0) (ite (= home_eff_2_1 6) 1 0) (ite (= home_eff_2_2 6) 1 0) (ite (= home_eff_2_3 6) 1 0) (ite (= home_eff_2_4 6) 1 0) (ite (= home_eff_2_5 6) 1 0) (ite (= home_eff_2_6 6) 1 0) (ite (= home_eff_3_0 6) 1 0) (ite (= home_eff_3_1 6) 1 0) (ite (= home_eff_3_2 6) 1 0) (ite (= home_eff_3_3 6) 1 0) (ite (= home_eff_3_4 6) 1 0) (ite (= home_eff_3_5 6) 1 0) (ite (= home_eff_3_6 6) 1 0))) 2))
(assert (<= (- (+ (ite (= home_eff_0_0 7) 1 0) (ite (= home_eff_0_1 7) 1 0) (ite (= home_eff_0_2 7) 1 0) (ite (= home_eff_0_3 7) 1 0) (ite (= home_eff_0_4 7) 1 0) (ite (= home_eff_0_5 7) 1 0) (ite (= home_eff_0_6 7) 1 0) (ite (= home_eff_1_0 7) 1 0) (ite (= home_eff_1_1 7) 1 0) (ite (= home_eff_1_2 7) 1 0) (ite (= home_eff_1_3 7) 1 0) (ite (= home_eff_1_4 7) 1 0) (ite (= home_eff_1_5 7) 1 0) (ite (= home_eff_1_6 7) 1 0) (ite (= home_eff_2_0 7) 1 0) (ite (= home_eff_2_1 7) 1 0) (ite (= home_eff_2_2 7) 1 0) (ite (= home_eff_2_3 7) 1 0) (ite (= home_eff_2_4 7) 1 0) (ite (= home_eff_2_5 7) 1 0) (ite (= home_eff_2_6 7) 1 0) (ite (= home_eff_3_0 7) 1 0) (ite (= home_eff_3_1 7) 1 0) (ite (= home_eff_3_2 7) 1 0) (ite (= home_eff_3_3 7) 1 0) (ite (= home_eff_3_4 7) 1 0) (ite (= home_eff_3_5 7) 1 0) (ite (= home_eff_3_6 7) 1 0)) (+ (ite (= away_eff_0_0 7) 1 0) (ite (= away_eff_0_1 7) 1 0) (ite (= away_eff_0_2 7) 1 0) (ite (= away_eff_0_3 7) 1 0) (ite (= away_eff_0_4 7) 1 0) (ite (= away_eff_0_5 7) 1 0) (ite (= away_eff_0_6 7) 1 0) (ite (= away_eff_1_0 7) 1 0) (ite (= away_eff_1_1 7) 1 0) (ite (= away_eff_1_2 7) 1 0) (ite (= away_eff_1_3 7) 1 0) (ite (= away_eff_1_4 7) 1 0) (ite (= away_eff_1_5 7) 1 0) (ite (= away_eff_1_6 7) 1 0) (ite (= away_eff_2_0 7) 1 0) (ite (= away_eff_2_1 7) 1 0) (ite (= away_eff_2_2 7) 1 0) (ite (= away_eff_2_3 7) 1 0) (ite (= away_eff_2_4 7) 1 0) (ite (= away_eff_2_5 7) 1 0) (ite (= away_eff_2_6 7) 1 0) (ite (= away_eff_3_0 7) 1 0) (ite (= away_eff_3_1 7) 1 0) (ite (= away_eff_3_2 7) 1 0) (ite (= away_eff_3_3 7) 1 0) (ite (= away_eff_3_4 7) 1 0) (ite (= away_eff_3_5 7) 1 0) (ite (= away_eff_3_6 7) 1 0))) 2))
(assert (<= (- (+ (ite (= away_eff_0_0 7) 1 0) (ite (= away_eff_0_1 7) 1 0) (ite (= away_eff_0_2 7) 1 0) (ite (= away_eff_0_3 7) 1 0) (ite (= away_eff_0_4 7) 1 0) (ite (= away_eff_0_5 7) 1 0) (ite (= away_eff_0_6 7) 1 0) (ite (= away_eff_1_0 7) 1 0) (ite (= away_eff_1_1 7) 1 0) (ite (= away_eff_1_2 7) 1 0) (ite (= away_eff_1_3 7) 1 0) (ite (= away_eff_1_4 7) 1 0) (ite (= away_eff_1_5 7) 1 0) (ite (= away_eff_1_6 7) 1 0) (ite (= away_eff_2_0 7) 1 0) (ite (= away_eff_2_1 7) 1 0) (ite (= away_eff_2_2 7) 1 0) (ite (= away_eff_2_3 7) 1 0) (ite (= away_eff_2_4 7) 1 0) (ite (= away_eff_2_5 7) 1 0) (ite (= away_eff_2_6 7) 1 0) (ite (= away_eff_3_0 7) 1 0) (ite (= away_eff_3_1 7) 1 0) (ite (= away_eff_3_2 7) 1 0) (ite (= away_eff_3_3 7) 1 0) (ite (= away_eff_3_4 7) 1 0) (ite (= away_eff_3_5 7) 1 0) (ite (= away_eff_3_6 7) 1 0)) (+ (ite (= home_eff_0_0 7) 1 0) (ite (= home_eff_0_1 7) 1 0) (ite (= home_eff_0_2 7) 1 0) (ite (= home_eff_0_3 7) 1 0) (ite (= home_eff_0_4 7) 1 0) (ite (= home_eff_0_5 7) 1 0) (ite (= home_eff_0_6 7) 1 0) (ite (= home_eff_1_0 7) 1 0) (ite (= home_eff_1_1 7) 1 0) (ite (= home_eff_1_2 7) 1 0) (ite (= home_eff_1_3 7) 1 0) (ite (= home_eff_1_4 7) 1 0) (ite (= home_eff_1_5 7) 1 0) (ite (= home_eff_1_6 7) 1 0) (ite (= home_eff_2_0 7) 1 0) (ite (= home_eff_2_1 7) 1 0) (ite (= home_eff_2_2 7) 1 0) (ite (= home_eff_2_3 7) 1 0) (ite (= home_eff_2_4 7) 1 0) (ite (= home_eff_2_5 7) 1 0) (ite (= home_eff_2_6 7) 1 0) (ite (= home_eff_3_0 7) 1 0) (ite (= home_eff_3_1 7) 1 0) (ite (= home_eff_3_2 7) 1 0) (ite (= home_eff_3_3 7) 1 0) (ite (= home_eff_3_4 7) 1 0) (ite (= home_eff_3_5 7) 1 0) (ite (= home_eff_3_6 7) 1 0))) 2))
(assert (<= (- (+ (ite (= home_eff_0_0 8) 1 0) (ite (= home_eff_0_1 8) 1 0) (ite (= home_eff_0_2 8) 1 0) (ite (= home_eff_0_3 8) 1 0) (ite (= home_eff_0_4 8) 1 0) (ite (= home_eff_0_5 8) 1 0) (ite (= home_eff_0_6 8) 1 0) (ite (= home_eff_1_0 8) 1 0) (ite (= home_eff_1_1 8) 1 0) (ite (= home_eff_1_2 8) 1 0) (ite (= home_eff_1_3 8) 1 0) (ite (= home_eff_1_4 8) 1 0) (ite (= home_eff_1_5 8) 1 0) (ite (= home_eff_1_6 8) 1 0) (ite (= home_eff_2_0 8) 1 0) (ite (= home_eff_2_1 8) 1 0) (ite (= home_eff_2_2 8) 1 0) (ite (= home_eff_2_3 8) 1 0) (ite (= home_eff_2_4 8) 1 0) (ite (= home_eff_2_5 8) 1 0) (ite (= home_eff_2_6 8) 1 0) (ite (= home_eff_3_0 8) 1 0) (ite (= home_eff_3_1 8) 1 0) (ite (= home_eff_3_2 8) 1 0) (ite (= home_eff_3_3 8) 1 0) (ite (= home_eff_3_4 8) 1 0) (ite (= home_eff_3_5 8) 1 0) (ite (= home_eff_3_6 8) 1 0)) (+ (ite (= away_eff_0_0 8) 1 0) (ite (= away_eff_0_1 8) 1 0) (ite (= away_eff_0_2 8) 1 0) (ite (= away_eff_0_3 8) 1 0) (ite (= away_eff_0_4 8) 1 0) (ite (= away_eff_0_5 8) 1 0) (ite (= away_eff_0_6 8) 1 0) (ite (= away_eff_1_0 8) 1 0) (ite (= away_eff_1_1 8) 1 0) (ite (= away_eff_1_2 8) 1 0) (ite (= away_eff_1_3 8) 1 0) (ite (= away_eff_1_4 8) 1 0) (ite (= away_eff_1_5 8) 1 0) (ite (= away_eff_1_6 8) 1 0) (ite (= away_eff_2_0 8) 1 0) (ite (= away_eff_2_1 8) 1 0) (ite (= away_eff_2_2 8) 1 0) (ite (= away_eff_2_3 8) 1 0) (ite (= away_eff_2_4 8) 1 0) (ite (= away_eff_2_5 8) 1 0) (ite (= away_eff_2_6 8) 1 0) (ite (= away_eff_3_0 8) 1 0) (ite (= away_eff_3_1 8) 1 0) (ite (= away_eff_3_2 8) 1 0) (ite (= away_eff_3_3 8) 1 0) (ite (= away_eff_3_4 8) 1 0) (ite (= away_eff_3_5 8) 1 0) (ite (= away_eff_3_6 8) 1 0))) 2))
(assert (<= (- (+ (ite (= away_eff_0_0 8) 1 0) (ite (= away_eff_0_1 8) 1 0) (ite (= away_eff_0_2 8) 1 0) (ite (= away_eff_0_3 8) 1 0) (ite (= away_eff_0_4 8) 1 0) (ite (= away_eff_0_5 8) 1 0) (ite (= away_eff_0_6 8) 1 0) (ite (= away_eff_1_0 8) 1 0) (ite (= away_eff_1_1 8) 1 0) (ite (= away_eff_1_2 8) 1 0) (ite (= away_eff_1_3 8) 1 0) (ite (= away_eff_1_4 8) 1 0) (ite (= away_eff_1_5 8) 1 0) (ite (= away_eff_1_6 8) 1 0) (ite (= away_eff_2_0 8) 1 0) (ite (= away_eff_2_1 8) 1 0) (ite (= away_eff_2_2 8) 1 0) (ite (= away_eff_2_3 8) 1 0) (ite (= away_eff_2_4 8) 1 0) (ite (= away_eff_2_5 8) 1 0) (ite (= away_eff_2_6 8) 1 0) (ite (= away_eff_3_0 8) 1 0) (ite (= away_eff_3_1 8) 1 0) (ite (= away_eff_3_2 8) 1 0) (ite (= away_eff_3_3 8) 1 0) (ite (= away_eff_3_4 8) 1 0) (ite (= away_eff_3_5 8) 1 0) (ite (= away_eff_3_6 8) 1 0)) (+ (ite (= home_eff_0_0 8) 1 0) (ite (= home_eff_0_1 8) 1 0) (ite (= home_eff_0_2 8) 1 0) (ite (= home_eff_0_3 8) 1 0) (ite (= home_eff_0_4 8) 1 0) (ite (= home_eff_0_5 8) 1 0) (ite (= home_eff_0_6 8) 1 0) (ite (= home_eff_1_0 8) 1 0) (ite (= home_eff_1_1 8) 1 0) (ite (= home_eff_1_2 8) 1 0) (ite (= home_eff_1_3 8) 1 0) (ite (= home_eff_1_4 8) 1 0) (ite (= home_eff_1_5 8) 1 0) (ite (= home_eff_1_6 8) 1 0) (ite (= home_eff_2_0 8) 1 0) (ite (= home_eff_2_1 8) 1 0) (ite (= home_eff_2_2 8) 1 0) (ite (= home_eff_2_3 8) 1 0) (ite (= home_eff_2_4 8) 1 0) (ite (= home_eff_2_5 8) 1 0) (ite (= home_eff_2_6 8) 1 0) (ite (= home_eff_3_0 8) 1 0) (ite (= home_eff_3_1 8) 1 0) (ite (= home_eff_3_2 8) 1 0) (ite (= home_eff_3_3 8) 1 0) (ite (= home_eff_3_4 8) 1 0) (ite (= home_eff_3_5 8) 1 0) (ite (= home_eff_3_6 8) 1 0))) 2))
(check-sat)
(get-model)